
Gurobi 10.0.1 (win64) logging started Fri Oct  6 16:53:12 2023

Set parameter LogFile to value "./results//log/URT_03_deadline_heurTrue.log"
Gurobi Optimizer version 10.0.1 build v10.0.1rc0 (win64)

CPU model: AMD Ryzen 7 3700X 8-Core Processor, instruction set [SSE2|AVX|AVX2]
Thread count: 8 physical cores, 16 logical processors, using up to 16 threads

Optimize a model with 52 rows, 52 columns and 141 nonzeros
Model fingerprint: 0xf3474f66
Model has 1 quadratic constraint
Variable types: 0 continuous, 52 integer (45 binary)
Coefficient statistics:
  Matrix range     [1e+00, 1e+07]
  QMatrix range    [1e+00, 1e+00]
  QLMatrix range   [1e+00, 7e+00]
  Objective range  [1e+00, 1e+00]
  Bounds range     [1e+00, 1e+00]
  RHS range        [1e+00, 3e+07]

User MIP start did not produce a new incumbent solution
User MIP start violates constraint initial_start_time_job1_stage0_machine1_constraint by 1.000000000

Presolve removed 34 rows and 38 columns
Presolve time: 0.00s
Presolved: 20 rows, 15 columns, 56 nonzeros
Variable types: 0 continuous, 15 integer (7 binary)

Root relaxation: objective 2.000002e+00, 9 iterations, 0.00 seconds (0.00 work units)
Another try with MIP start

    Nodes    |    Current Node    |     Objective Bounds      |     Work
 Expl Unexpl |  Obj  Depth IntInf | Incumbent    BestBd   Gap | It/Node Time

H    0     0                      50.0000000    2.00000  96.0%     -    0s
     0     0    2.00000    0    8   50.00000    2.00000  96.0%     -    0s
H    0     0                      47.0000000    2.00000  95.7%     -    0s
     0     0    8.98000    0    5   47.00000    8.98000  80.9%     -    0s
     0     0    9.00000    0    4   47.00000    9.00000  80.9%     -    0s
     0     0   18.25002    0    9   47.00000   18.25002  61.2%     -    0s
     0     0   26.45993    0    8   47.00000   26.45993  43.7%     -    0s
     0     0   30.98419    0    9   47.00000   30.98419  34.1%     -    0s
     0     0   33.63256    0   11   47.00000   33.63256  28.4%     -    0s

Cutting planes:
  Learned: 3
  Cover: 1
  Implied bound: 2
  Clique: 1
  MIR: 1
  RLT: 2
  Relax-and-lift: 5

Explored 1 nodes (44 simplex iterations) in 0.06 seconds (0.00 work units)
Thread count was 16 (of 16 available processors)

Solution count 2: 47 50 

Optimal solution found (tolerance 1.00e-04)
Best objective 4.700000000000e+01, best bound 4.700000000000e+01, gap 0.0000%
Warning: constraint name "precedence between 0,0 to 0,1 if x_[0,0,0,1,0]=0, i.e. 0,1 before 0,0" has a space
Warning: constraint name "precedence between 0,0 to 0,1 if x_[0,0,0,1,0]=0, i.e. 0,1 before 0,0" has a space
Warning: default constraint names used to write mps file
